unsat
(:max-memory                   18.48
 :memory                       18.05
 :nlsat-conflicts              12
 :nlsat-decisions              5
 :nlsat-irrational-assignments 1
 :nlsat-learned-added          11
 :nlsat-propagations           61
 :nlsat-stages                 10
 :num-allocs                   49777
 :rlimit-count                 135263
 :time                         0.14
 :total-time                   0.15)
